sat
(
  (define-fun StorageProv4 () Int
    2000)
  (define-fun ProcProv4 () Int
    2)
  (define-fun PriceProv2 () Int
    252)
  (define-fun C1_VM2 () Int
    1)
  (define-fun C1_VM4 () Int
    0)
  (define-fun MemProv1 () Int
    3750)
  (define-fun C5_VM2 () Int
    0)
  (define-fun PriceProv4 () Int
    128)
  (define-fun C3_VM3 () Int
    0)
  (define-fun MemProv4 () Int
    3750)
  (define-fun C5_VM4 () Int
    0)
  (define-fun StorageProv2 () Int
    2000)
  (define-fun C2_VM1 () Int
    1)
  (define-fun MemProv2 () Int
    7500)
  (define-fun C5_VM3 () Int
    1)
  (define-fun MemProv3 () Int
    7500)
  (define-fun VM4Type () Int
    37)
  (define-fun ProcProv5 () Int
    4)
  (define-fun ProcProv3 () Int
    4)
  (define-fun MemProv5 () Int
    7500)
  (define-fun VM5Type () Int
    27)
  (define-fun C3_VM5 () Int
    1)
  (define-fun C4_VM2 () Int
    0)
  (define-fun C4_VM5 () Int
    0)
  (define-fun C2_VM3 () Int
    0)
  (define-fun C2_VM5 () Int
    0)
  (define-fun PriceProv5 () Int
    252)
  (define-fun PriceProv1 () Int
    128)
  (define-fun C3_VM4 () Int
    0)
  (define-fun C5_VM5 () Int
    0)
  (define-fun C4_VM4 () Int
    1)
  (define-fun C4_VM3 () Int
    0)
  (define-fun VM3Type () Int
    26)
  (define-fun C1_VM5 () Int
    0)
  (define-fun C2_VM4 () Int
    0)
  (define-fun StorageProv3 () Int
    2000)
  (define-fun C1_VM3 () Int
    0)
  (define-fun StorageProv1 () Int
    2000)
  (define-fun ProcProv1 () Int
    2)
  (define-fun C4_VM1 () Int
    0)
  (define-fun ProcProv2 () Int
    4)
  (define-fun StorageProv5 () Int
    2000)
  (define-fun C3_VM2 () Int
    0)
  (define-fun VM2Type () Int
    26)
  (define-fun PriceProv3 () Int
    252)
  (define-fun C3_VM1 () Int
    0)
  (define-fun VM1Type () Int
    37)
  (define-fun C2_VM2 () Int
    0)
  (define-fun C5_VM1 () Int
    0)
  (define-fun C1_VM1 () Int
    0)
)
(objectives
 ((+ 0 PriceProv1 PriceProv2 PriceProv3 PriceProv4 PriceProv5) 1012)
)
(:added-eqs                   103538
 :arith-eq-adapter            8756
 :arith-bound-propagations-lp 82125
 :arith-conflicts             277
 :arith-diseq                 175751
 :arith-fixed-eqs             1440
 :arith-lower                 225130
 :arith-make-feasible         18480
 :arith-max-columns           134
 :arith-max-rows              17
 :arith-upper                 140818
 :binary-propagations         677843
 :conflicts                   3318
 :decisions                   47921
 :del-clause                  15420
 :final-checks                73
 :max-memory                  43.58
 :memory                      43.58
 :minimized-lits              55274
 :mk-bool-var                 19022
 :mk-clause                   16445
 :mk-clause-binary            3497
 :num-allocs                  40380912
 :num-checks                  57
 :pb-conflicts                1271
 :pb-predicates               384
 :pb-propagations             3341
 :pb-resolves                 1269
 :propagations                1146898
 :restarts                    23
 :rlimit-count                6657258
 :solve-eqs-elim-vars         2
 :solve-eqs-steps             16
 :time                        0.38
 :total-time                  0.38)
